certificates/rado_a15_c215_N47.cnf
c Rad2 upper bound instance: x1 + 15*x2 - x3 = 215, interval [1,47]
p cnf 47 294
1 11 15 0
-1 -11 -15 0
1 16 26 0
-1 -16 -26 0
1 17 41 0
-1 -17 -41 0
2 12 15 0
-2 -12 -15 0
2 16 27 0
-2 -16 -27 0
2 17 42 0
-2 -17 -42 0
3 13 15 0
-3 -13 -15 0
3 16 28 0
-3 -16 -28 0
3 17 43 0
-3 -17 -43 0
4 14 15 0
-4 -14 -15 0
4 16 29 0
-4 -16 -29 0
4 17 44 0
-4 -17 -44 0
5 15 0
-5 -15 0
5 16 30 0
-5 -16 -30 0
5 17 45 0
-5 -17 -45 0
1 6 14 0
-1 -6 -14 0
6 15 16 0
-6 -15 -16 0
6 16 31 0
-6 -16 -31 0
6 17 46 0
-6 -17 -46 0
2 7 14 0
-2 -7 -14 0
7 15 17 0
-7 -15 -17 0
7 16 32 0
-7 -16 -32 0
7 17 47 0
-7 -17 -47 0
3 8 14 0
-3 -8 -14 0
8 15 18 0
-8 -15 -18 0
8 16 33 0
-8 -16 -33 0
4 9 14 0
-4 -9 -14 0
9 15 19 0
-9 -15 -19 0
9 16 34 0
-9 -16 -34 0
5 10 14 0
-5 -10 -14 0
10 15 20 0
-10 -15 -20 0
10 16 35 0
-10 -16 -35 0
6 11 14 0
-6 -11 -14 0
11 15 21 0
-11 -15 -21 0
11 16 36 0
-11 -16 -36 0
7 12 14 0
-7 -12 -14 0
12 15 22 0
-12 -15 -22 0
12 16 37 0
-12 -16 -37 0
8 13 14 0
-8 -13 -14 0
13 15 23 0
-13 -15 -23 0
13 16 38 0
-13 -16 -38 0
9 14 0
-9 -14 0
14 15 24 0
-14 -15 -24 0
14 16 39 0
-14 -16 -39 0
10 14 15 0
-10 -14 -15 0
15 25 0
-15 -25 0
15 16 40 0
-15 -16 -40 0
11 14 16 0
-11 -14 -16 0
15 16 26 0
-15 -16 -26 0
16 41 0
-16 -41 0
12 14 17 0
-12 -14 -17 0
15 17 27 0
-15 -17 -27 0
16 17 42 0
-16 -17 -42 0
13 14 18 0
-13 -14 -18 0
15 18 28 0
-15 -18 -28 0
16 18 43 0
-16 -18 -43 0
14 19 0
-14 -19 0
15 19 29 0
-15 -19 -29 0
16 19 44 0
-16 -19 -44 0
14 15 20 0
-14 -15 -20 0
15 20 30 0
-15 -20 -30 0
16 20 45 0
-16 -20 -45 0
1 13 21 0
-1 -13 -21 0
14 16 21 0
-14 -16 -21 0
15 21 31 0
-15 -21 -31 0
16 21 46 0
-16 -21 -46 0
2 13 22 0
-2 -13 -22 0
14 17 22 0
-14 -17 -22 0
15 22 32 0
-15 -22 -32 0
16 22 47 0
-16 -22 -47 0
3 13 23 0
-3 -13 -23 0
14 18 23 0
-14 -18 -23 0
15 23 33 0
-15 -23 -33 0
4 13 24 0
-4 -13 -24 0
14 19 24 0
-14 -19 -24 0
15 24 34 0
-15 -24 -34 0
5 13 25 0
-5 -13 -25 0
14 20 25 0
-14 -20 -25 0
15 25 35 0
-15 -25 -35 0
6 13 26 0
-6 -13 -26 0
14 21 26 0
-14 -21 -26 0
15 26 36 0
-15 -26 -36 0
7 13 27 0
-7 -13 -27 0
14 22 27 0
-14 -22 -27 0
15 27 37 0
-15 -27 -37 0
8 13 28 0
-8 -13 -28 0
14 23 28 0
-14 -23 -28 0
15 28 38 0
-15 -28 -38 0
9 13 29 0
-9 -13 -29 0
14 24 29 0
-14 -24 -29 0
15 29 39 0
-15 -29 -39 0
10 13 30 0
-10 -13 -30 0
14 25 30 0
-14 -25 -30 0
15 30 40 0
-15 -30 -40 0
11 13 31 0
-11 -13 -31 0
14 26 31 0
-14 -26 -31 0
15 31 41 0
-15 -31 -41 0
12 13 32 0
-12 -13 -32 0
14 27 32 0
-14 -27 -32 0
15 32 42 0
-15 -32 -42 0
13 33 0
-13 -33 0
14 28 33 0
-14 -28 -33 0
15 33 43 0
-15 -33 -43 0
13 14 34 0
-13 -14 -34 0
14 29 34 0
-14 -29 -34 0
15 34 44 0
-15 -34 -44 0
13 15 35 0
-13 -15 -35 0
14 30 35 0
-14 -30 -35 0
15 35 45 0
-15 -35 -45 0
1 12 36 0
-1 -12 -36 0
13 16 36 0
-13 -16 -36 0
14 31 36 0
-14 -31 -36 0
15 36 46 0
-15 -36 -46 0
2 12 37 0
-2 -12 -37 0
13 17 37 0
-13 -17 -37 0
14 32 37 0
-14 -32 -37 0
15 37 47 0
-15 -37 -47 0
3 12 38 0
-3 -12 -38 0
13 18 38 0
-13 -18 -38 0
14 33 38 0
-14 -33 -38 0
4 12 39 0
-4 -12 -39 0
13 19 39 0
-13 -19 -39 0
14 34 39 0
-14 -34 -39 0
5 12 40 0
-5 -12 -40 0
13 20 40 0
-13 -20 -40 0
14 35 40 0
-14 -35 -40 0
6 12 41 0
-6 -12 -41 0
13 21 41 0
-13 -21 -41 0
14 36 41 0
-14 -36 -41 0
7 12 42 0
-7 -12 -42 0
13 22 42 0
-13 -22 -42 0
14 37 42 0
-14 -37 -42 0
8 12 43 0
-8 -12 -43 0
13 23 43 0
-13 -23 -43 0
14 38 43 0
-14 -38 -43 0
9 12 44 0
-9 -12 -44 0
13 24 44 0
-13 -24 -44 0
14 39 44 0
-14 -39 -44 0
10 12 45 0
-10 -12 -45 0
13 25 45 0
-13 -25 -45 0
14 40 45 0
-14 -40 -45 0
11 12 46 0
-11 -12 -46 0
13 26 46 0
-13 -26 -46 0
14 41 46 0
-14 -41 -46 0
12 47 0
-12 -47 0
13 27 47 0
-13 -27 -47 0
14 42 47 0
-14 -42 -47 0
