certificates/rado_a15_c215_N47.drat
14 -47 0
41 -47 0
-47 0
12 0
-14 0
9 0
19 0
42 0
-44 0
-15 0
-7 0
39 0
5 0
25 0
4 0
37 0
34 0
24 0
10 0
20 0
2 0
17 0
0
